RT is False
Default write of storage_offers_DA.csv just to have a file (but constraint should be inactive)
Reading model...
...model read.
creating competitive generators file...
...competitive generators recorded.
Loading data...
.. day-ahead data with real-time VRE data read.
Compiling instance...
...instance created.
Creating Offer Mitigation (model will solve as dispatch if TRUE)...
Solving...

Welcome to IBM(R) ILOG(R) CPLEX(R) Interactive Optimizer 12.9.0.0
  with Simplex, Mixed Integer & Barrier Optimizers
5725-A06 5725-A29 5724-Y48 5724-Y49 5724-Y54 5724-Y55 5655-Y21
Copyright IBM Corp. 1988, 2019.  All Rights Reserved.

Type 'help' for a list of available commands.
Type 'help' followed by a command name for more
information on commands.

CPLEX> Logfile 'cplex.log' closed.
Logfile 'C:\Users\llavin\Desktop\test919\logs\tmp34nxjsf9.cplex.log' open.
CPLEX> New value for parallel optimization mode: -1
CPLEX> New value for mixed integer optimality gap tolerance: 0.01
CPLEX> New value for integrality tolerance: 1e-09
CPLEX> New value for feasibility tolerance: 0.01
CPLEX> New value for deterministic time limit in ticks: 75000
CPLEX> Problem 'C:\Users\llavin\Desktop\test919\logs\tmpmrdh7y9h.pyomo.lp' read.
Read time = 0.05 sec. (3.04 ticks)
CPLEX> Problem name         : C:\Users\llavin\Desktop\test919\logs\tmpmrdh7y9h.pyomo.lp
Objective sense      : Minimize
Variables            :   26081  [Nneg: 1,  Box: 21616,  Free: 4464]
Objective nonzeros   :    2496
Linear constraints   :   27515  [Less: 14006,  Greater: 4416,  Equal: 9093]
  Nonzeros           :   89267
  RHS nonzeros       :   12271

Variables            : Min LB: -5000.000        Max UB: 1000000.       
Objective nonzeros   : Min   : 15.73158         Max   : 124.0997       
Linear constraints   :
  Nonzeros           : Min   : 0.8500000        Max   : 3000.000       
  RHS nonzeros       : Min   : 0.008333333      Max   : 5000.000       
CPLEX> CPXPARAM_Parallel                                -1
CPXPARAM_Simplex_Tolerances_Feasibility          0.01
CPXPARAM_DetTimeLimit                            75000
CPXPARAM_MIP_Tolerances_MIPGap                   0.01
CPXPARAM_MIP_Tolerances_Integrality              1.0000000000000001e-09
Parallel mode: opportunistic, using up to 32 threads for concurrent optimization.
Tried aggregator 1 time.
LP Presolve eliminated 21353 rows and 15463 columns.
Aggregator did 773 substitutions.
Reduced LP has 5389 rows, 9845 columns, and 31806 nonzeros.
Presolve time = 0.05 sec. (30.46 ticks)
Symmetry aggregator did 5563 additional substitutions.

Iteration log . . .
Iteration:     1   Dual objective     =             0.000000
Perturbation started.
Iteration:   101   Dual objective     =             0.000000
Iteration:   335   Dual objective     =             1.229895
Iteration:   593   Dual objective     =             1.753815
Iteration:   852   Dual objective     =             1.890722
Iteration:  1066   Dual objective     =             2.004857
Iteration:  1341   Dual objective     =             2.049226
Iteration:  1582   Dual objective     =             2.076882
Iteration:  1805   Dual objective     =             2.098415
Iteration:  2035   Dual objective     =             2.122386
Iteration:  2221   Dual objective     =             2.136040
Iteration:  2480   Dual objective     =         15893.174384
Iteration:  2789   Dual objective     =         22419.976743
Iteration:  3114   Dual objective     =         23503.035089
Removing perturbation.
Using devex.

Primal simplex solved model.


Primal simplex - Optimal:  Objective =  2.3526044134e+04
Solution time =    0.16 sec.  Iterations = 1688 (1152)
Deterministic time = 77.61 ticks  (497.50 ticks/sec)

CPLEX> Solution written to file 'C:\Users\llavin\Desktop\test919\logs\tmpa1wdug3j.cplex.sol'.
CPLEX> Exporting results... 
...storage offer mitigation file created
Converting model to MPEC...
...converted
NOTE: initial MIP solve with only storage competitive to get feasible solution
Solving...

Welcome to IBM(R) ILOG(R) CPLEX(R) Interactive Optimizer 12.9.0.0
  with Simplex, Mixed Integer & Barrier Optimizers
5725-A06 5725-A29 5724-Y48 5724-Y49 5724-Y54 5724-Y55 5655-Y21
Copyright IBM Corp. 1988, 2019.  All Rights Reserved.

Type 'help' for a list of available commands.
Type 'help' followed by a command name for more
information on commands.

CPLEX> Logfile 'cplex.log' closed.
Logfile 'C:\Users\llavin\Desktop\test919\logs\tmptlff5915.cplex.log' open.
CPLEX> New value for parallel optimization mode: -1
CPLEX> New value for mixed integer optimality gap tolerance: 0.01
CPLEX> New value for integrality tolerance: 1e-09
CPLEX> New value for feasibility tolerance: 0.01
CPLEX> New value for deterministic time limit in ticks: 75000
CPLEX> Problem 'C:\Users\llavin\Desktop\test919\logs\tmpgh4nwc_r.pyomo.lp' read.
Read time = 0.25 sec. (14.78 ticks)
CPLEX> Problem name         : C:\Users\llavin\Desktop\test919\logs\tmpgh4nwc_r.pyomo.lp
Objective sense      : Maximize
Variables            :   53805  [Nneg: 1,  Box: 22000,  Free: 4464,
                                 Binary: 27340]
Objective nonzeros   :    8980
Linear constraints   :  123205  [Less: 41346,  Greater: 59096,  Equal: 22763]
  Nonzeros           :  291801
  RHS nonzeros       :   67415

Variables            : Min LB: -5000.000        Max UB: 1000000.       
Objective nonzeros   : Min   : 0.008333333      Max   : 834.2500       
Linear constraints   :
  Nonzeros           : Min   : 0.008333333      Max   : 1000000.       
  RHS nonzeros       : Min   : 0.008333333      Max   : 1000000.       
CPLEX> CPXPARAM_Parallel                                -1
CPXPARAM_Simplex_Tolerances_Feasibility          0.01
CPXPARAM_DetTimeLimit                            75000
CPXPARAM_MIP_Tolerances_MIPGap                   0.01
CPXPARAM_MIP_Tolerances_Integrality              1.0000000000000001e-09
Tried aggregator 3 times.
MIP Presolve eliminated 88622 rows and 18922 columns.
MIP Presolve added 3391 rows and 0 columns.
MIP Presolve modified 24896 coefficients.
Aggregator did 12998 substitutions.
Reduced MIP has 24976 rows, 21329 columns, and 71265 nonzeros.
Reduced MIP has 8418 binaries, 0 generals, 0 SOSs, and 0 indicators.
Presolve time = 0.31 sec. (173.64 ticks)
Probing fixed 369 vars, tightened 2825 bounds.
Probing time = 1.20 sec. (887.19 ticks)
Tried aggregator 2 times.
MIP Presolve eliminated 843 rows and 746 columns.
MIP Presolve modified 2192 coefficients.
Aggregator did 42 substitutions.
Reduced MIP has 24091 rows, 20541 columns, and 68707 nonzeros.
Reduced MIP has 8045 binaries, 0 generals, 0 SOSs, and 0 indicators.
Presolve time = 0.11 sec. (67.89 ticks)
Probing fixed 0 vars, tightened 1 bounds.
Probing time = 0.05 sec. (20.28 ticks)
Clique table members: 6481.
MIP emphasis: balance optimality and feasibility.
MIP search method: dynamic search.
Parallel mode: opportunistic, using up to 32 threads.
Root relaxation solution time = 0.38 sec. (292.61 ticks)

        Nodes                                         Cuts/
   Node  Left     Objective  IInf  Best Integer    Best Bound    ItCnt     Gap

      0     0     1868.3853  1616                   1868.3853     6212         
      0     5    infeasible                           Cuts: 5     6299         
Elapsed time = 8.34 sec. (4562.42 ticks, tree = 0.02 MB, solutions = 0)
*   235    94      integral     0     1868.3853     1868.3853     6856   -0.00%
*   446   123      integral     0     1868.3853     1868.3853     7050   -0.00%
*   485   184      integral     0     1868.3853     1868.3853     7478   -0.00%

Cover cuts applied:  3
Implied bound cuts applied:  6

Root node processing (before b&c):
  Real time             =    7.03 sec. (4552.74 ticks)
Parallel b&c, 32 threads:
  Real time             =    2.81 sec. (344.44 ticks)
  Sync time (average)   =    1.04 sec.
  Wait time (average)   =    0.00 sec.
                          ------------
Total (root+branch&cut) =    9.84 sec. (4897.18 ticks)

Solution pool: 9 solutions saved.

MIP - Integer optimal solution:  Objective =  1.8683852936e+03
Solution time =    9.86 sec.  Iterations = 9238  Nodes = 503
Deterministic time = 4897.33 ticks  (496.69 ticks/sec)

CPLEX> Incumbent solution written to file 'C:\Users\llavin\Desktop\test919\logs\tmp65u97poj.cplex.sol'.
CPLEX> NOTE: no warmstart specified for MIP iteration, default behavior is true
NOTE: resolving with all competitive generators using storage-only solution to warmstart
Solving...

Welcome to IBM(R) ILOG(R) CPLEX(R) Interactive Optimizer 12.9.0.0
  with Simplex, Mixed Integer & Barrier Optimizers
5725-A06 5725-A29 5724-Y48 5724-Y49 5724-Y54 5724-Y55 5655-Y21
Copyright IBM Corp. 1988, 2019.  All Rights Reserved.

Type 'help' for a list of available commands.
Type 'help' followed by a command name for more
information on commands.

CPLEX> Logfile 'cplex.log' closed.
Logfile 'C:\Users\llavin\Desktop\test919\logs\tmpbjqemx3o.cplex.log' open.
CPLEX> New value for parallel optimization mode: -1
CPLEX> New value for mixed integer optimality gap tolerance: 0.01
CPLEX> New value for integrality tolerance: 1e-09
CPLEX> New value for feasibility tolerance: 0.01
CPLEX> New value for deterministic time limit in ticks: 75000
CPLEX> Problem 'C:\Users\llavin\Desktop\test919\logs\tmp9cr52dmb.pyomo.lp' read.
Read time = 0.23 sec. (14.81 ticks)
CPLEX> MIP start file 'C:\Users\llavin\Desktop\test919\logs\tmp0f673os3.cplex.mst' read.
CPLEX> Problem name         : C:\Users\llavin\Desktop\test919\logs\tmp9cr52dmb.pyomo.lp
Objective sense      : Maximize
Variables            :   54525  [Nneg: 1,  Box: 22720,  Free: 4464,
                                 Binary: 27340]
Objective nonzeros   :    9676
Linear constraints   :  123205  [Less: 41346,  Greater: 59096,  Equal: 22763]
  Nonzeros           :  291801
  RHS nonzeros       :   67415

Variables            : Min LB: -5000.000        Max UB: 1000000.       
Objective nonzeros   : Min   : 0.008333333      Max   : 786.9417       
Linear constraints   :
  Nonzeros           : Min   : 0.008333333      Max   : 1000000.       
  RHS nonzeros       : Min   : 0.008333333      Max   : 1000000.       
CPLEX> CPXPARAM_Parallel                                -1
CPXPARAM_Simplex_Tolerances_Feasibility          0.01
CPXPARAM_DetTimeLimit                            75000
CPXPARAM_MIP_Tolerances_MIPGap                   0.01
CPXPARAM_MIP_Tolerances_Integrality              1.0000000000000001e-09
Warning:  No solution found from 1 MIP starts.
Retaining values of one MIP start for possible repair.
Tried aggregator 3 times.
MIP Presolve eliminated 88622 rows and 19642 columns.
MIP Presolve added 3391 rows and 0 columns.
MIP Presolve modified 24896 coefficients.
Aggregator did 12998 substitutions.
Reduced MIP has 24976 rows, 21329 columns, and 71265 nonzeros.
Reduced MIP has 8418 binaries, 0 generals, 0 SOSs, and 0 indicators.
Presolve time = 0.28 sec. (174.00 ticks)
Probing fixed 369 vars, tightened 2825 bounds.
Probing time = 1.20 sec. (887.19 ticks)
Tried aggregator 2 times.
MIP Presolve eliminated 843 rows and 746 columns.
MIP Presolve modified 2192 coefficients.
Aggregator did 42 substitutions.
Reduced MIP has 24091 rows, 20541 columns, and 68707 nonzeros.
Reduced MIP has 8045 binaries, 0 generals, 0 SOSs, and 0 indicators.
Presolve time = 0.09 sec. (67.89 ticks)
Probing fixed 0 vars, tightened 1 bounds.
Probing time = 0.05 sec. (20.28 ticks)
Clique table members: 6481.
MIP emphasis: balance optimality and feasibility.
MIP search method: dynamic search.
Parallel mode: opportunistic, using up to 32 threads.
Root relaxation solution time = 0.42 sec. (311.77 ticks)

        Nodes                                         Cuts/
   Node  Left     Objective  IInf  Best Integer    Best Bound    ItCnt     Gap

      0     0   139815.4530  1745                 139815.4530     6470         
      0     0   134444.7443   693                   Cuts: 612     6812         
      0     0   133020.6327   609                   Cuts: 232     6945         
      0     0   133020.6327   576                   Cuts: 100     6992         
      0     0   133020.6327   555                    Cuts: 83     7028         
      0     0   119806.6166   504                    Cuts: 85     7092         
      0     0   119538.6014   497                   Cuts: 109     7133         
      0     0   119532.1847   480                    Cuts: 81     7156         
      0     0   119532.1847   467                    Cuts: 72     7172         
      0     0   113799.4982   466                    Cuts: 73     7439         
      0     0   111898.6132   459                   Cuts: 100     7477         
      0     0   111893.0254   461                    Cuts: 89     7493         
      0     0   111893.0254   461                    Cuts: 89     7503         
Repair heuristic found nothing.
      0     3   104250.8566   450                     Cuts: 7     7517         
Elapsed time = 12.05 sec. (7169.41 ticks, tree = 0.02 MB, solutions = 0)
    360    13    66810.2926   399                  71116.8569     8294         
    658   463    38400.0255   358                  71116.8569    18953         
   1141   542    28594.3340   372                  71116.8569    20384         
   1969   989    17470.4024   355                  71116.8569    42022         
   2947  1014    -3022.2987   336                  71116.8569    45161         
   3691  1040     -756.8698   334                  71116.8569    46268         
   4434  1235     4371.1914   335                  71116.8569    62630         
   5337  2380  -169873.6732   316                  71116.8569    76957         
   6279  2212  -110686.0115   301                  71116.8569    75260         
  10240  5983    -7438.2371   194                  71116.8569    88039         
Elapsed time = 30.09 sec. (10271.21 ticks, tree = 47.04 MB, solutions = 0)
  13333  9685    32631.3428   353                  71116.8569    95535         
  15460 11159  -120617.2316   285                  71116.8569   108933         
  17373 12795     8615.6743   286                  71116.8569   121257         
  19712 10127  -258984.9786   270                  69651.1767   100888         
  22235 12384   -83263.0226   364                  68245.3578   120108         
  25063 14805  -394901.4631   346                  58527.4825   172331         
  27798 17079  -402270.4768   211                  57798.9957   195488         
  30480 18820  -292658.2306   119                  57798.9957   213254         
  32962 17565   -15411.9345   136                  57798.9957   202571         
* 33177+12699                        -5534.3867    57798.9957              --- 
Elapsed time = 73.53 sec. (18955.49 ticks, tree = 108.50 MB, solutions = 1)
  34724 22867  -244006.8070   305    -5534.3867    57798.9957   254784     --- 
  35301 14443    infeasible          -5534.3867    10981.3130   333436  298.42%
  36006    45    -5498.8357    35     1868.3853     5295.2959   334427  183.42%

Clique cuts applied:  4
Cover cuts applied:  36
Implied bound cuts applied:  18
Flow cuts applied:  398
Mixed integer rounding cuts applied:  64
Gomory fractional cuts applied:  88

Root node processing (before b&c):
  Real time             =   10.36 sec. (7148.37 ticks)
Parallel b&c, 32 threads:
  Real time             =   82.42 sec. (20511.70 ticks)
  Sync time (average)   =    2.57 sec.
  Wait time (average)   =    0.17 sec.
                          ------------
Total (root+branch&cut) =   92.78 sec. (27660.07 ticks)

Solution pool: 3 solutions saved.

MIP - Integer optimal, tolerance (0.01/1e-06):  Objective =  1.8683852936e+03
Current MIP best bound =  1.8846489424e+03 (gap = 16.2636, 0.87%)
Solution time =   92.80 sec.  Iterations = 340596  Nodes = 36101 (1)
Deterministic time = 27660.22 ticks  (298.07 ticks/sec)

CPLEX> Incumbent solution written to file 'C:\Users\llavin\Desktop\test919\logs\tmpi05yeckp.cplex.sol'.
CPLEX> Exporting results... 
